letting initialStacks = [49, 25, 42, 17, 30, 41, 24, 3, 9, 39, 40, 22, 36, 26, 14, 4, 20, 27, 34, 51, 15, 50, 43, 29, 8, 13, 19, 45, 11, 23, 35, 16, 7, 10, 5, 31, 2, 47, 28, 32, 46, 6, 1, 44, 33, 48, 12, 37, 38, 18, 21]
